
List of user-set options:

                                    Name   Value                used
                           compl_inf_tol = 1                     yes
                         constr_viol_tol = 1                     yes
                            dual_inf_tol = 1000                  yes
                           linear_solver = ma97                  yes
                              ma86_small = 1e-30                  no
                                  ma86_u = 0.0001                 no
                              ma97_order = best                  yes
                              ma97_small = 1e-30                 yes
                            ma97_switch1 = at_start              yes
                            ma97_switch2 = od_hd_reuse           yes
                                  ma97_u = 1e-06                 yes
                               ma97_umax = 0.5                   yes
                                max_iter = 1000                  yes
                    max_refinement_steps = 20                    yes
                    min_refinement_steps = 5                     yes
                                 mu_init = 1e-06                 yes
           mu_superlinear_decrease_power = 1.25                  yes
                   nlp_scaling_min_value = 1e-08                 yes
                        option_file_name = Preset_Case:_466_NCP.opt  yes
                             output_file = ./tmp/Preset_Case:_466_NCP.output  yes
                      print_user_options = yes                   yes
        required_infeasibility_reduction = 1                      no
                                     tol = 1e-08                 yes
                   warm_start_bound_frac = 1e-20                 yes
                   warm_start_bound_push = 1e-20                 yes
                   warm_start_init_point = yes                   yes
              warm_start_mult_bound_push = 1e-20                 yes
                warm_start_mult_init_max = 1e+40                 yes
             warm_start_slack_bound_frac = 1e-20                 yes
             warm_start_slack_bound_push = 1e-20                 yes

******************************************************************************
This program contains Ipopt, a library for large-scale nonlinear optimization.
 Ipopt is released as open source code under the Eclipse Public License (EPL).
         For more information visit http://projects.coin-or.org/Ipopt
******************************************************************************

This is Ipopt version 3.12.10, running with linear solver ma97.

Number of nonzeros in equality constraint Jacobian...:   117167
Number of nonzeros in inequality constraint Jacobian.:      213
Number of nonzeros in Lagrangian Hessian.............:    47513

Total number of variables............................:    29977
                     variables with only lower bounds:    11312
                variables with lower and upper bounds:    15135
                     variables with only upper bounds:        0
Total number of equality constraints.................:    29864
Total number of inequality constraints...............:       25
        inequality constraints with only lower bounds:        4
   inequality constraints with lower and upper bounds:        0
        inequality constraints with only upper bounds:       21

iter    objective    inf_pr   inf_du lg(mu)  ||d||  lg(rg) alpha_du alpha_pr  ls
   0 -1.5181476e-01 2.24e-01 2.00e+00  -6.0 0.00e+00    -  0.00e+00 0.00e+00   0
In iteration 0, 8 Slacks too small, adjusting variable bounds
   1 -1.5181476e-01 2.24e-01 1.20e+03  -6.0 1.18e+10    -  1.20e-13 6.39e-18h  1
   2 -1.5181526e-01 2.24e-01 1.20e+03  -6.0 8.95e+01    -  1.00e-02 1.51e-05f  1
   3 -1.5183098e-01 2.24e-01 1.14e+03  -6.0 4.51e+01    -  1.04e-01 7.08e-04h  1
   4 -1.5320445e-01 2.16e-01 1.09e+03  -6.0 4.08e+02    -  6.82e-02 3.58e-02f  1
   5 -1.5347095e-01 2.00e-01 2.13e+03  -6.0 1.12e+02    -  6.28e-02 7.36e-02f  1
   6 -1.5407287e-01 1.88e-01 3.34e+03  -6.0 1.06e+02    -  7.47e-02 5.95e-02h  1
   7 -1.5439989e-01 1.75e-01 4.58e+03  -6.0 6.31e+01    -  4.60e-02 6.64e-02h  1
   8 -1.5475492e-01 2.36e-01 6.99e+03  -6.0 6.27e+01    -  1.22e-01 9.66e-02h  1
   9 -1.5511412e-01 3.27e-01 1.01e+04  -6.0 5.45e+01    -  1.54e-01 1.23e-01h  1
iter    objective    inf_pr   inf_du lg(mu)  ||d||  lg(rg) alpha_du alpha_pr  ls
  10 -1.5581044e-01 2.93e-01 1.00e+04  -6.0 6.03e+01    -  2.58e-02 1.08e-01h  1
  11 -1.5666686e-01 2.84e-01 2.00e+04  -6.0 4.44e+01    -  2.27e-01 1.16e-01f  1
  12 -1.5829643e-01 4.93e-01 6.80e+03  -6.0 3.91e+01    -  1.32e-01 1.87e-01h  1
  13 -1.5971278e-01 2.19e+00 1.20e+05  -6.0 3.46e+01    -  7.69e-02 4.62e-01h  1
  14 -1.5970590e-01 2.18e+00 1.20e+05  -6.0 3.03e+01    -  3.50e-03 9.00e-04h  1
  15 -1.5905727e-01 2.08e+00 1.16e+05  -6.0 3.74e+01    -  3.93e-02 6.28e-02h  2
  16 -1.5881877e-01 2.02e+00 1.07e+05  -6.0 3.20e+01    -  8.52e-02 2.92e-02h  3
  17 -1.5872366e-01 2.00e+00 8.90e+04  -6.0 3.70e+01    -  6.66e-02 1.16e-02h  5
  18 -1.5869262e-01 1.99e+00 8.65e+04  -6.0 4.07e+01    -  1.03e-02 3.81e-03h  7
  19 -1.5867664e-01 1.99e+00 6.17e+04  -6.0 4.17e+01    -  7.75e-02 1.96e-03h  8
iter    objective    inf_pr   inf_du lg(mu)  ||d||  lg(rg) alpha_du alpha_pr  ls
  20 -1.5584813e-01 1.35e+00 1.35e+05  -6.0 4.30e+01    -  1.37e-02 3.24e-01h  1
  21 -1.5497655e-01 1.16e+00 1.74e+06  -6.0 4.80e+01    -  4.12e-01 1.47e-01h  1
  22 -1.5308538e-01 7.59e-01 1.14e+06  -6.0 4.83e+01    -  3.34e-01 3.38e-01h  1
  23 -1.5244734e-01 6.32e-01 3.84e+06  -6.0 5.65e+01    -  3.36e-01 1.59e-01h  1
  24r-1.5244734e-01 6.32e-01 1.00e+03  -0.5 0.00e+00    -  0.00e+00 4.36e-07R  3
  25r-1.5209169e-01 6.27e-01 2.56e+03  -0.5 9.20e+03    -  2.76e-05 8.94e-06f  1
  26 -1.5208570e-01 6.24e-01 3.07e+07  -6.0 2.17e+01    -  3.14e-01 4.58e-03h  1
  27 -1.5207649e-01 6.20e-01 4.59e+07  -6.0 5.27e+01    -  4.61e-03 6.89e-03h  1
  28 -1.5137942e-01 3.65e-01 2.70e+07  -6.0 2.75e+01    -  1.18e-02 4.12e-01h  1
  29 -1.5136401e-01 3.59e-01 2.65e+07  -6.0 1.39e+01    -  4.64e-01 1.64e-02h  1
iter    objective    inf_pr   inf_du lg(mu)  ||d||  lg(rg) alpha_du alpha_pr  ls
  30 -1.5023223e-01 6.45e-02 6.47e+04  -6.0 1.74e+01    -  8.04e-01 1.00e+00h  1
  31 -1.5040974e-01 7.52e-03 1.29e+05  -6.0 6.47e+00    -  5.26e-01 8.99e-01h  1
  32 -1.5051161e-01 6.98e-03 9.71e+04  -6.0 7.09e+00    -  4.46e-01 7.61e-02h  1
  33 -1.5051275e-01 6.98e-03 7.04e+05  -6.0 2.15e+02    -  2.22e-04 3.28e-05h  1
  34 -1.5180901e-01 1.21e-02 7.16e+06  -6.0 3.54e+00    -  9.21e-02 1.00e+00f  1
  35 -1.5285328e-01 4.55e-03 1.53e+05  -6.0 2.99e+00    -  8.08e-01 1.00e+00h  1
  36 -1.5747802e-01 1.25e-01 4.47e+03  -6.0 1.38e+01    -  7.36e-01 1.00e+00h  1
  37 -1.6622899e-01 2.99e+00 2.94e+03  -6.0 6.06e+01    -  3.90e-01 7.97e-01h  1
  38 -1.7296754e-01 1.11e+00 1.25e+03  -6.0 7.37e+01    -  5.91e-01 8.57e-01h  1
  39 -1.7659855e-01 1.20e+00 1.30e+03  -6.0 1.57e+02    -  2.26e-03 4.66e-01h  1
iter    objective    inf_pr   inf_du lg(mu)  ||d||  lg(rg) alpha_du alpha_pr  ls
  40 -1.7835097e-01 1.17e+00 7.13e+02  -6.0 2.08e+02    -  4.13e-01 2.53e-01h  1
  41 -1.8000198e-01 1.47e+00 7.64e+02  -6.0 2.13e+03    -  7.01e-05 2.68e-02h  1
  42 -1.8075157e-01 1.21e+00 6.55e+02  -6.0 2.17e+02    -  1.58e-01 1.93e-01h  1
  43 -1.8113902e-01 1.14e+00 2.78e+02  -6.0 2.93e+02    -  3.26e-01 7.04e-02h  1
  44 -1.8358689e-01 9.09e-01 6.72e+02  -6.0 3.59e+02    -  7.55e-01 4.41e-01h  1
  45 -1.8347054e-01 1.26e-02 9.75e+03  -6.0 1.41e+00  -4.0 1.42e-01 1.00e+00h  1
  46 -1.8355501e-01 7.31e-03 5.72e+03  -6.0 5.98e-01  -4.5 8.45e-01 4.14e-01h  1
  47 -1.8372512e-01 4.29e-03 1.03e+03  -6.0 1.14e+00  -5.0 1.00e+00 8.22e-01f  1
  48 -1.8406472e-01 5.32e-03 7.02e+02  -6.0 6.66e+00  -5.4 1.50e-01 3.08e-01f  1
  49 -1.8406768e-01 5.33e-03 3.54e+04  -6.0 4.48e+00  -5.9 1.00e+00 2.66e-02h  1
iter    objective    inf_pr   inf_du lg(mu)  ||d||  lg(rg) alpha_du alpha_pr  ls
  50 -1.8488286e-01 2.45e-01 9.46e+03  -6.0 1.01e+01  -6.4 3.12e-01 6.08e-01f  1
  51 -1.8500290e-01 2.38e-01 7.97e+04  -6.0 3.53e+01  -6.9 2.97e-01 4.32e-02h  1
  52 -1.8547426e-01 3.58e-01 2.14e+06  -6.0 1.10e+02  -7.3 1.02e-02 1.82e-01f  1
  53 -1.8552248e-01 3.52e-01 2.12e+06  -6.0 3.61e+02  -7.8 1.88e-01 1.03e-02h  1
  54 -1.9093373e-01 2.96e+00 4.38e+05  -6.0 5.47e+02  -8.3 8.65e-01 7.90e-01f  1
  55 -1.9214383e-01 2.24e+00 3.15e+05  -6.0 2.40e+02  -7.9 2.70e-01 2.77e-01h  1
  56 -1.9305562e-01 2.00e+00 1.18e+05  -6.0 8.98e+01  -7.4 1.00e+00 6.24e-01h  1
  57 -1.9499241e-01 2.51e+01 9.41e+04  -6.0 1.65e+03  -7.9 2.96e-01 2.01e-01h  1
  58 -1.9525859e-01 2.53e+01 9.28e+04  -6.0 1.63e+03  -8.4 2.74e-03 1.34e-02h  1
  59 -1.9795779e-01 6.58e+00 2.04e+04  -6.0 3.28e+02  -8.0 1.40e-01 7.82e-01h  1
iter    objective    inf_pr   inf_du lg(mu)  ||d||  lg(rg) alpha_du alpha_pr  ls
  60 -1.9809036e-01 6.49e+00 2.01e+04  -6.0 7.22e+02  -8.4 3.84e-01 1.45e-02h  1
  61 -1.9864225e-01 5.00e+00 1.54e+04  -6.0 3.04e+02  -8.0 1.57e-03 2.32e-01h  1
  62 -1.9879981e-01 4.90e+00 1.51e+04  -6.0 6.69e+02  -8.5 1.92e-01 2.10e-02h  1
  63 -2.0114913e-01 5.76e+00 9.35e+03  -6.0 3.15e+02  -8.1 1.83e-03 3.81e-01h  1
Error in an AMPL evaluation. Run with "halt_on_ampl_error yes" to see details.
Warning: Cutting back alpha due to evaluation error
  64 -2.0222888e-01 5.38e+00 8.66e+03  -6.0 1.62e+03  -8.5 2.34e-01 7.39e-02h  2
Error in an AMPL evaluation. Run with "halt_on_ampl_error yes" to see details.
Warning: Cutting back alpha due to evaluation error
  65 -2.0250203e-01 5.16e+00 8.27e+03  -6.0 4.11e+02  -8.1 5.37e-01 4.53e-02h  2
Error in an AMPL evaluation. Run with "halt_on_ampl_error yes" to see details.
Warning: Cutting back alpha due to evaluation error
  66 -2.0346729e-01 4.89e+00 7.81e+03  -6.0 2.48e+03  -8.6 2.73e-02 5.52e-02h  2
  67 -2.0347040e-01 4.89e+00 7.81e+03  -6.0 4.28e+01  -5.5 2.19e-01 8.67e-04h  1
Error in an AMPL evaluation. Run with "halt_on_ampl_error yes" to see details.
Warning: Cutting back alpha due to evaluation error
  68 -2.0349977e-01 4.81e+00 7.67e+03  -6.0 4.96e+01  -5.9 9.66e-01 1.72e-02h  2
Error in an AMPL evaluation. Run with "halt_on_ampl_error yes" to see details.
Warning: Cutting back alpha due to evaluation error
  69 -2.0357789e-01 4.63e+00 1.64e+04  -6.0 2.31e+02  -6.4 7.18e-01 4.19e-02h  2
Error in an AMPL evaluation. Run with "halt_on_ampl_error yes" to see details.
Warning: Cutting back alpha due to evaluation error
iter    objective    inf_pr   inf_du lg(mu)  ||d||  lg(rg) alpha_du alpha_pr  ls
  70 -2.0371686e-01 4.14e+00 1.37e+04  -6.0 4.52e+02  -6.9 1.00e+00 1.18e-01h  2
Error in an AMPL evaluation. Run with "halt_on_ampl_error yes" to see details.
Warning: Cutting back alpha due to evaluation error
  71 -2.0382222e-01 3.63e+00 1.18e+04  -6.0 6.16e+02  -7.4 1.39e-01 1.34e-01h  2
  72 -2.0422201e-01 3.09e+00 8.47e+03  -6.0 5.24e+02  -7.9 4.67e-01 1.66e-01h  1
Error in an AMPL evaluation. Run with "halt_on_ampl_error yes" to see details.
Warning: Cutting back alpha due to evaluation error
  73 -2.0425168e-01 3.06e+00 9.65e+03  -6.0 4.93e+01  -4.7 1.64e-02 1.13e-02h  2
  74 -2.0426096e-01 3.06e+00 9.82e+03  -6.0 1.00e+03  -5.2 7.02e-04 3.18e-04h  1
Error in an AMPL evaluation. Run with "halt_on_ampl_error yes" to see details.
Warning: Cutting back alpha due to evaluation error
  75 -2.0429530e-01 3.03e+00 2.07e+04  -6.0 7.28e+01  -4.8 4.09e-02 8.95e-03h  2
  76 -2.0437610e-01 3.03e+00 2.08e+04  -6.0 8.32e+03  -5.2 2.80e-04 3.21e-04h  1
  77 -2.0453560e-01 2.96e+00 5.89e+04  -6.0 1.39e+02  -4.8 9.58e-02 2.16e-02f  1
  78 -2.0663065e-01 2.20e+01 6.40e+04  -6.0 4.86e+02  -5.3 3.56e-02 1.09e-01h  1
  79 -2.0666524e-01 2.19e+01 1.18e+05  -6.0 2.97e+01  -4.0 8.33e-02 5.71e-03h  1
iter    objective    inf_pr   inf_du lg(mu)  ||d||  lg(rg) alpha_du alpha_pr  ls
  80 -2.0666924e-01 2.19e+01 1.96e+05  -6.0 2.58e+01  -3.5 2.49e-02 5.01e-04h  1
  81 -2.0666930e-01 2.19e+01 2.08e+05  -6.0 9.75e+01  -4.0 4.29e-03 1.74e-05h  1
  82 -2.0619485e-01 2.18e+01 1.75e+05  -6.0 3.78e+02  -3.6 2.50e-03 4.54e-03h  1
  83 -2.0625728e-01 2.17e+01 1.68e+05  -6.0 4.97e+01  -4.1 3.90e-03 5.30e-03h  1
  84 -2.0673166e-01 2.05e+01 9.68e+05  -6.0 7.93e+01  -4.5 2.78e-01 5.48e-02f  1
Error in an AMPL evaluation. Run with "halt_on_ampl_error yes" to see details.
Warning: Cutting back alpha due to evaluation error
  85 -2.0682634e-01 1.96e+01 1.19e+06  -6.0 1.87e+02  -5.0 1.47e-01 4.09e-02h  2
Error in an AMPL evaluation. Run with "halt_on_ampl_error yes" to see details.
Warning: Cutting back alpha due to evaluation error
  86 -2.0707821e-01 1.61e+01 1.10e+06  -6.0 2.17e+02  -5.5 6.52e-01 1.83e-01h  2
  87 -2.0705305e-01 1.38e+01 8.16e+05  -6.0 2.31e+02  -6.0 5.23e-01 1.39e-01h  1
  88 -2.0697904e-01 9.81e+00 4.35e+05  -6.0 2.41e+02  -6.5 7.41e-01 2.91e-01h  1
  89 -2.0675815e-01 5.66e+00 1.82e+05  -6.0 4.22e+02  -6.9 4.09e-03 4.24e-01h  1
iter    objective    inf_pr   inf_du lg(mu)  ||d||  lg(rg) alpha_du alpha_pr  ls
  90 -2.0682251e-01 5.38e+00 1.75e+05  -6.0 6.38e+03  -6.5 5.47e-03 4.96e-02H  1
  91 -2.0954378e-01 2.79e+01 2.13e+05  -6.0 3.90e+03  -7.0 5.84e-02 3.34e-01h  1
  92 -2.0952749e-01 2.77e+01 3.13e+05  -6.0 9.92e+01  -4.8 1.67e-02 8.56e-03h  1
Error in an AMPL evaluation. Run with "halt_on_ampl_error yes" to see details.
Warning: Cutting back alpha due to evaluation error
  93 -2.0943783e-01 2.68e+01 5.58e+05  -6.0 2.61e+02  -5.2 8.86e-03 3.13e-02h  2
  94 -2.0943857e-01 2.62e+01 5.44e+05  -6.0 5.02e+01  -4.8 9.87e-04 2.49e-02h  1
Error in an AMPL evaluation. Run with "halt_on_ampl_error yes" to see details.
Warning: Cutting back alpha due to evaluation error
  95 -2.0942281e-01 2.61e+01 2.17e+06  -6.0 3.75e+02  -5.3 8.52e-02 3.31e-03h  2
  96 -2.0944021e-01 2.53e+01 2.39e+06  -6.0 1.98e+01  -2.1 2.13e-02 2.94e-02h  1
Error in an AMPL evaluation. Run with "halt_on_ampl_error yes" to see details.
Warning: Cutting back alpha due to evaluation error
  97 -2.0940229e-01 1.90e+01 3.30e+07  -6.0 8.68e+00  -1.7 1.58e-02 2.48e-01h  2
  98 -2.0871981e-01 1.53e+01 9.53e+07  -6.0 5.97e+00  -1.3 4.92e-03 1.98e-01h  1
  99 -2.0870086e-01 1.40e+01 8.74e+07  -6.0 1.67e+00  -0.9 4.99e-02 8.24e-02h  1
iter    objective    inf_pr   inf_du lg(mu)  ||d||  lg(rg) alpha_du alpha_pr  ls
 100 -2.0852099e-01 3.95e+00 2.47e+07  -6.0 1.96e+00  -1.3 6.16e-02 7.18e-01h  1
 101 -2.0850871e-01 2.51e+00 1.57e+07  -6.0 4.99e-01  -1.8 1.04e-01 3.64e-01h  1
 102 -2.0848208e-01 2.08e-04 5.99e+03  -6.0 2.71e-01  -1.4 6.10e-01 1.00e+00h  1
 103 -2.0848947e-01 1.63e-04 5.13e+03  -6.0 1.58e-02  -1.9 1.43e-01 2.15e-01h  1
 104 -2.0858285e-01 4.83e-05 3.98e+03  -6.0 4.18e-02  -2.3 2.92e-01 1.00e+00f  1
 105 -2.0880943e-01 2.87e-04 9.78e+02  -6.0 1.02e-01  -2.8 7.13e-01 1.00e+00h  1
 106 -2.0903410e-01 4.10e-04 2.12e+02  -6.0 2.09e-01  -3.3 7.83e-01 4.74e-01h  1
 107 -2.0923279e-01 3.07e-04 5.27e+01  -6.0 4.52e-01  -3.8 7.50e-01 4.46e-01h  1
 108 -2.0935151e-01 2.59e-04 3.73e+01  -6.0 7.99e-01  -4.3 2.92e-01 2.37e-01f  1
 109 -2.0956437e-01 1.12e-03 2.28e+01  -6.0 1.78e+00  -4.7 3.91e-01 3.58e-01f  1
iter    objective    inf_pr   inf_du lg(mu)  ||d||  lg(rg) alpha_du alpha_pr  ls
 110 -2.1005678e-01 5.59e-03 3.62e+01  -6.0 5.60e+00  -5.2 2.86e-01 4.67e-01f  1
 111 -2.1049058e-01 1.33e-02 1.78e+01  -6.0 1.68e+01  -5.7 5.74e-01 2.96e-01f  1
 112 -2.1152027e-01 9.93e-02 3.34e+01  -6.0 4.06e+01  -6.2 3.10e-01 4.40e-01f  1
 113 -2.1203982e-01 5.43e-02 2.48e+01  -6.0 4.80e+01  -6.6 2.64e-01 2.13e-01h  1
 114 -2.1303825e-01 4.97e-02 2.35e+01  -6.0 9.17e+01  -7.1 1.59e-01 2.28e-01h  1
 115 -2.1532418e-01 3.33e-01 3.15e+01  -6.0 2.54e+02  -7.6 6.95e-01 3.68e-01h  1
 116 -2.1909990e-01 8.61e-01 5.57e+01  -6.0 6.64e+02  -8.1 7.02e-01 3.20e-01h  1
 117 -2.2017116e-01 8.93e-01 6.72e+01  -6.0 1.64e+03  -8.6 3.09e-01 4.01e-02h  1
 118 -2.2752190e-01 3.47e+00 2.05e+01  -6.0 6.54e+02  -8.1 7.82e-01 6.59e-01h  1
 119 -2.2752145e-01 3.36e+00 1.57e+01  -6.0 3.13e+01  -6.8 4.21e-01 3.03e-02h  1
iter    objective    inf_pr   inf_du lg(mu)  ||d||  lg(rg) alpha_du alpha_pr  ls
 120 -2.2767691e-01 2.80e+00 3.51e+01  -6.0 8.99e+01  -7.3 9.48e-01 1.70e-01h  1
 121 -2.2861591e-01 2.09e+00 1.63e+01  -6.0 2.49e+02  -7.7 9.21e-01 2.85e-01h  1
 122 -2.2914931e-01 1.97e+00 2.10e+01  -6.0 5.95e+02  -8.2 1.72e-01 6.63e-02h  1
 123 -2.3043444e-01 1.90e+00 1.59e+01  -6.0 1.31e+03  -8.7 5.59e-02 8.33e-02h  1
 124 -2.3057605e-01 1.78e+00 2.97e+01  -6.0 2.40e+02  -8.3 8.29e-01 6.76e-02h  1
 125 -2.3215649e-01 1.41e+00 2.00e+01  -6.0 6.98e+02  -8.8 7.07e-01 3.11e-01h  1
 126 -2.3328983e-01 1.03e+01 2.41e+01  -6.0 6.42e+03  -9.2 9.17e-02 1.03e-01h  1
 127 -2.3407818e-01 8.04e+00 4.81e+01  -6.0 7.37e+02  -8.8 1.00e+00 2.32e-01h  1
 128 -2.3779995e-01 3.05e+00 1.72e+01  -6.0 1.75e+03  -9.3 2.71e-01 6.23e-01h  1
 129 -2.3834915e-01 3.60e+00 1.55e+01  -6.0 2.82e+03  -9.8 2.14e-01 1.20e-01h  1
iter    objective    inf_pr   inf_du lg(mu)  ||d||  lg(rg) alpha_du alpha_pr  ls
 130 -2.3980659e-01 2.09e+00 2.16e+01  -6.0 1.14e+03  -9.3 9.95e-02 6.19e-01h  1
 131 -2.3982154e-01 2.28e+00 2.20e+01  -6.0 1.69e+03  -9.8 8.97e-02 3.28e-01h  1
 132 -2.3984299e-01 1.82e+00 2.69e+01  -6.0 2.28e+02  -7.6 1.00e+00 2.01e-01h  1
 133 -2.4006978e-01 1.49e+00 3.71e+00  -6.0 3.23e+02  -8.1 8.65e-01 8.45e-01h  1
 134 -2.4039738e-01 9.13e+00 9.15e+00  -6.0 8.57e+02  -8.5 2.96e-01 8.17e-01h  1
 135 -2.4098882e-01 8.44e+00 2.37e+04  -6.0 8.88e+02  -9.0 2.64e-01 5.67e-01h  1
 136 -2.4074032e-01 2.42e+00 1.05e+04  -6.0 5.77e+02  -9.5 4.39e-01 9.48e-01h  1
 137 -2.4109023e-01 2.00e+00 1.95e+03  -6.0 6.62e+03 -10.0 5.27e-01 2.02e-01h  1
 138 -2.4119396e-01 1.97e+00 1.91e+03  -6.0 2.14e+04 -10.4 6.67e-02 1.83e-02h  1
 139 -2.4146225e-01 1.71e+00 1.59e+03  -6.0 2.21e+03 -10.0 1.71e-01 1.67e-01h  1
iter    objective    inf_pr   inf_du lg(mu)  ||d||  lg(rg) alpha_du alpha_pr  ls
 140 -2.4172901e-01 1.30e+00 1.71e+04  -6.0 7.22e+02  -9.6 2.61e-02 3.07e-01h  1
 141 -2.4183199e-01 1.23e+00 1.61e+04  -6.0 1.76e+03 -10.1 9.56e-01 7.58e-02h  1
 142 -2.4199784e-01 1.21e+00 1.30e+04  -6.0 7.30e+02  -9.6 8.01e-02 2.02e-01h  1
 143 -2.4224745e-01 1.33e+00 1.04e+04  -6.0 2.40e+03 -10.1 6.83e-02 2.04e-01h  1
 144 -2.4245468e-01 1.47e+00 1.03e+04  -6.0 8.50e+02  -9.7 6.75e-02 2.57e-01h  1
 145 -2.4258858e-01 1.39e+00 7.74e+03  -6.0 5.28e+02  -9.3 1.03e-01 2.49e-01f  1
 146 -2.4259748e-01 1.38e+00 7.66e+03  -6.0 2.03e+03  -9.7 9.42e-03 9.22e-03h  1
 147 -2.4276489e-01 1.48e+00 2.22e+04  -6.0 5.89e+02  -9.3 2.31e-02 3.00e-01f  1
 148 -2.4302363e-01 9.51e-01 8.67e+03  -6.0 2.52e+02  -8.9 1.18e-01 7.59e-01f  1
 149 -2.4301670e-01 9.49e-01 8.61e+03  -6.0 2.73e+03  -9.4 1.72e-04 4.33e-03h  4
iter    objective    inf_pr   inf_du lg(mu)  ||d||  lg(rg) alpha_du alpha_pr  ls
 150 -2.4301794e-01 9.40e-01 8.53e+03  -6.0 5.02e+01  -7.1 1.39e-01 9.65e-03h  1
 151 -2.4309566e-01 2.34e+00 2.07e+03  -6.0 3.67e+01  -7.6 2.73e-01 8.50e-01f  1
 152 -2.4314626e-01 2.60e+00 1.40e+03  -6.0 1.06e+02  -8.1 3.46e-01 3.18e-01h  1
 153 -2.4348596e-01 3.03e+01 1.10e+03  -6.0 1.81e+02  -8.6 1.39e-01 2.56e-01h  1
 154 -2.4373553e-01 1.52e+01 2.01e+02  -6.0 3.77e+02  -9.0 9.83e-01 7.60e-01h  1
 155 -2.4394390e-01 1.30e+01 1.62e+02  -6.0 1.09e+03  -9.5 2.70e-01 1.89e-01h  1
 156 -2.4395408e-01 1.13e+01 1.39e+02  -6.0 2.31e+02  -8.2 1.04e-01 1.41e-01h  1
 157 -2.4397158e-01 7.14e+00 7.88e+01  -6.0 1.78e+02  -8.7 1.00e+00 3.90e-01h  1
 158 -2.4407816e-01 5.64e+00 6.20e+01  -6.0 7.31e+02  -9.1 2.72e-01 2.14e-01h  1
 159 -2.4420341e-01 9.20e-01 7.64e+00  -6.0 5.05e+02  -9.6 4.54e-01 1.00e+00h  1
iter    objective    inf_pr   inf_du lg(mu)  ||d||  lg(rg) alpha_du alpha_pr  ls
 160 -2.4438560e-01 5.91e+00 2.82e+01  -6.0 1.26e+03 -10.1 3.14e-01 9.51e-01h  1
 161 -2.4444539e-01 2.06e+00 4.77e+01  -6.0 1.31e+01  -7.0 7.29e-02 1.00e+00h  1
 162 -2.4451018e-01 1.07e+00 1.25e+01  -6.0 1.59e+01  -7.4 7.98e-01 4.99e-01h  1
 163 -2.4452810e-01 8.24e-01 7.50e+00  -6.0 5.32e+01  -7.9 3.35e-01 2.31e-01h  1
 164 -2.4459529e-01 3.21e-01 8.26e-01  -6.0 5.78e+01  -8.4 1.00e+00 1.00e+00h  1
 165 -2.4464108e-01 4.90e-01 5.98e+00  -6.0 1.79e+02  -8.9 1.00e+00 3.67e-01h  1
 166 -2.4465489e-01 4.28e-01 5.86e+00  -6.0 1.94e+02  -9.4 4.49e-01 1.00e+00h  1
 167 -2.4479534e-01 2.07e+01 5.93e+01  -6.0 1.12e+03  -9.8 2.91e-01 1.00e+00h  1
 168 -2.4507177e-01 6.43e+00 8.18e+01  -6.0 1.35e+03 -10.3 3.78e-01 1.00e+00h  1
 169 -2.4509427e-01 1.68e+01 7.71e+01  -6.0 1.80e+04    -  9.12e-02 4.97e-02h  1
iter    objective    inf_pr   inf_du lg(mu)  ||d||  lg(rg) alpha_du alpha_pr  ls
 170 -2.4525152e-01 5.71e+01 4.35e+01  -6.0 2.23e+03 -10.8 2.69e-01 8.55e-01h  1
 171 -2.4537602e-01 4.76e+01 3.57e+01  -6.0 4.70e+03    -  1.88e-01 1.71e-01h  1
 172 -2.4543697e-01 4.43e+01 3.60e+01  -6.0 1.20e+04 -11.3 2.14e-01 6.85e-02h  1
 173 -2.4562641e-01 3.47e+01 2.99e+01  -6.0 1.52e+03    -  2.76e-01 2.17e-01h  1
 174 -2.4564719e-01 3.15e+01 2.72e+01  -6.0 1.23e+03    -  9.74e-02 9.32e-02h  1
 175 -2.4574175e-01 2.53e+01 2.37e+01  -6.0 7.50e+02    -  6.69e-01 1.98e-01h  1
 176 -2.4581773e-01 1.71e+01 1.57e+01  -6.0 1.14e+03  -9.9 2.42e-01 3.25e-01h  1
 177 -2.4609559e-01 3.48e+01 6.33e+01  -6.0 1.44e+03 -10.4 2.74e-01 1.00e+00h  1
 178 -2.4615834e-01 2.33e+01 5.92e+01  -6.0 7.01e+00  -6.4 1.21e-01 3.32e-01h  1
 179 -2.4629948e-01 5.05e+00 1.28e+02  -6.0 8.65e+02    -  6.92e-01 8.30e-01h  1
iter    objective    inf_pr   inf_du lg(mu)  ||d||  lg(rg) alpha_du alpha_pr  ls
 180 -2.4635489e-01 4.81e+00 4.47e+02  -6.0 2.29e+03    -  1.17e-01 5.97e-02h  1
 181 -2.4638043e-01 5.92e+00 3.18e+02  -6.0 2.43e+03    -  2.38e-01 2.43e-01h  2
 182 -2.4651308e-01 7.65e-01 1.28e+03  -6.0 3.78e+00  -6.8 5.18e-01 8.71e-01h  1
 183 -2.4649171e-01 5.30e-02 3.39e+05  -6.0 4.83e+00  -7.3 1.31e-02 1.00e+00h  1
 184 -2.4650018e-01 2.23e-01 2.54e+05  -6.0 2.65e+01  -7.8 7.27e-01 2.50e-01h  3
 185 -2.4651823e-01 3.76e-01 1.43e+02  -6.0 1.13e+01  -7.4 1.00e+00 1.00e+00h  1
 186 -2.4667733e-01 1.82e+00 2.96e+02  -6.0 4.82e+01  -7.9 3.51e-01 4.39e-01h  1
 187 -2.4667082e-01 5.68e-01 8.07e+01  -6.0 2.76e+01  -8.3 1.00e+00 1.00e+00h  1
 188 -2.4674062e-01 3.65e-01 8.11e+00  -6.0 1.15e+02  -8.8 5.57e-01 7.96e-01h  1
 189 -2.4685950e-01 2.89e+00 1.94e+02  -6.0 4.08e+02  -9.3 8.18e-01 1.00e+00h  1
iter    objective    inf_pr   inf_du lg(mu)  ||d||  lg(rg) alpha_du alpha_pr  ls
 190 -2.4697989e-01 3.49e+00 6.76e+01  -6.0 4.41e+02  -9.8 3.37e-01 1.00e+00h  1
 191 -2.4697941e-01 3.48e+00 9.65e+01  -6.0 1.02e+04    -  1.73e-01 3.85e-03h  2
 192 -2.4683771e-01 4.76e+01 1.67e+01  -6.0 1.66e+03    -  1.00e+00 1.00e+00h  1
 193 -2.4683038e-01 4.11e+01 4.67e+01  -6.0 4.40e+02    -  9.84e-01 1.37e-01h  1
 194 -2.4677299e-01 4.98e-02 5.33e+01  -6.0 5.26e+01    -  5.67e-01 1.00e+00h  1
 195 -2.4678781e-01 2.96e-01 8.35e-01  -6.0 1.37e+02    -  1.00e+00 1.00e+00h  1
 196 -2.4678833e-01 2.20e-03 2.00e-03  -6.0 1.15e+01    -  1.00e+00 1.00e+00h  1
 197 -2.4678833e-01 2.08e-07 2.70e-07  -6.0 1.12e-01    -  1.00e+00 1.00e+00h  1
 198 -2.4719479e-01 1.40e+00 1.69e+01  -7.5 2.80e+03    -  1.58e-01 1.90e-01f  1
 199 -2.4781667e-01 5.38e+00 2.37e+01  -7.5 2.73e+03    -  4.17e-01 3.86e-01h  1
iter    objective    inf_pr   inf_du lg(mu)  ||d||  lg(rg) alpha_du alpha_pr  ls
 200 -2.4783797e-01 5.24e+00 7.33e+01  -7.5 8.41e+02 -10.2 5.55e-01 2.65e-02h  1
 201 -2.4814176e-01 6.15e+00 4.33e+01  -7.5 3.20e+03    -  1.58e-01 2.85e-01h  1
 202 -2.4815425e-01 6.08e+00 4.94e+01  -7.5 4.22e+03    -  1.11e-01 1.33e-02h  1
 203 -2.4835019e-01 5.43e+00 2.74e+01  -7.5 3.28e+03    -  1.29e-01 2.82e-01h  1
 204 -2.4839765e-01 5.04e+00 2.93e+01  -7.5 4.71e+03    -  1.79e-01 8.12e-02h  1
 205 -2.4845421e-01 4.64e+00 3.13e+01  -7.5 8.62e+03    -  2.24e-01 8.93e-02h  1
 206 -2.4854867e-01 3.63e+00 2.47e+01  -7.5 2.45e+03 -10.7 2.55e-01 2.34e-01h  1
 207 -2.4867458e-01 2.11e+00 1.20e+01  -7.5 1.17e+03 -10.3 1.08e-01 4.37e-01h  1
 208 -2.4870876e-01 1.70e+00 1.26e+01  -7.5 5.09e+02  -9.9 1.45e-01 1.99e-01h  1
 209 -2.4880359e-01 3.40e-01 5.20e+00  -7.5 1.57e+02  -9.4 8.08e-01 8.53e-01h  1
iter    objective    inf_pr   inf_du lg(mu)  ||d||  lg(rg) alpha_du alpha_pr  ls
 210 -2.4890675e-01 2.21e+00 4.67e+01  -7.5 8.53e+02  -9.9 5.60e-01 8.18e-01h  1
 211 -2.4896341e-01 1.35e+00 8.46e+01  -7.5 4.23e+02  -9.5 2.51e-01 3.66e-01h  1
 212 -2.4904800e-01 4.20e-01 3.49e+02  -7.5 1.46e+02  -9.1 5.36e-01 9.87e-01h  1
 213 -2.4911273e-01 5.16e-01 2.94e+04  -7.5 6.29e+02  -9.5 6.55e-03 2.75e-01h  1
 214 -2.4913795e-01 3.39e-01 1.79e+04  -7.5 2.38e+02  -9.1 3.15e-04 3.90e-01h  1
 215 -2.4924369e-01 1.20e+00 1.50e+04  -7.5 1.27e+03  -9.6 9.74e-02 1.60e-01h  1
 216 -2.4941421e-01 1.80e+00 1.50e+01  -7.5 3.02e+02  -9.2 1.55e-01 1.00e+00h  1
 217 -2.4950050e-01 4.11e-01 3.34e+00  -7.5 1.12e+02  -8.7 6.32e-01 7.93e-01h  1
 218 -2.4966053e-01 5.99e-01 1.95e+00  -7.5 4.85e+02  -9.2 3.79e-04 4.93e-01h  1
 219 -2.4977693e-01 7.76e-01 1.89e+00  -7.5 4.61e+03  -9.7 1.62e-02 2.66e-02f  1
iter    objective    inf_pr   inf_du lg(mu)  ||d||  lg(rg) alpha_du alpha_pr  ls
 220 -2.4996843e-01 3.06e+00 1.00e+00  -7.5 3.33e+02  -9.3 1.73e-01 8.82e-01f  1
 221 -2.4997072e-01 2.95e+00 8.97e+02  -7.5 2.01e+02  -7.9 2.47e-01 3.73e-02h  1
 222 -2.4998250e-01 2.07e+00 1.89e+03  -7.5 4.66e+01  -7.5 6.76e-04 2.95e-01h  1
 223 -2.4999435e-01 7.37e-01 1.67e+03  -7.5 1.40e+01  -7.1 3.31e-01 6.45e-01f  1
 224 -2.4999272e-01 3.35e-03 9.70e-01  -7.5 1.52e+01  -7.6 1.00e+00 1.00e+00h  1
 225 -2.5004027e-01 1.71e-02 4.51e-01  -7.5 3.50e+01  -8.0 1.00e+00 9.30e-01h  1
 226 -2.5017263e-01 1.59e-01 1.70e-02  -7.5 1.16e+02  -8.5 1.00e+00 1.00e+00h  1
 227 -2.5030025e-01 2.42e-01 5.36e-01  -7.5 3.97e+02  -9.0 1.00e+00 2.82e-01h  1
 228 -2.5086962e-01 5.87e+00 1.03e+00  -7.5 8.11e+02  -9.5 3.87e-01 6.17e-01h  1
 229 -2.5131610e-01 7.76e+00 1.45e+01  -7.5 3.34e+03  -9.9 1.20e-01 1.19e-01h  1
iter    objective    inf_pr   inf_du lg(mu)  ||d||  lg(rg) alpha_du alpha_pr  ls
 230 -2.5180192e-01 8.19e+00 9.60e+02  -7.5 1.24e+03  -9.5 5.07e-01 2.74e-01h  1
 231 -2.5346352e-01 4.07e+01 4.56e+03  -7.5 6.35e+03 -10.0 5.01e-02 1.99e-01h  1
 232 -2.5371046e-01 4.12e+01 5.38e+03  -7.5 3.00e+04 -10.5 2.03e-03 5.52e-03h  1
 233 -2.5379711e-01 3.73e+01 2.92e+03  -7.5 6.86e+03    -  1.84e-01 9.46e-02h  1
 234 -2.5432563e-01 3.49e+01 4.12e+03  -7.5 4.31e+03    -  1.46e-01 1.05e-01h  1
 235 -2.5457654e-01 2.64e+01 8.22e+04  -7.5 5.47e+03    -  3.11e-02 2.47e-01h  1
 236 -2.5458269e-01 2.64e+01 8.21e+04  -7.5 9.37e+03    -  4.83e-04 1.28e-03h  1
 237 -2.5477714e-01 2.30e+01 7.14e+04  -7.5 5.14e+03    -  7.62e-02 1.29e-01h  1
 238 -2.5521848e-01 1.61e+01 4.99e+04  -7.5 2.63e+03    -  1.54e-01 3.02e-01h  1
 239 -2.5539547e-01 1.44e+01 4.45e+04  -7.5 2.99e+03    -  1.29e-01 1.07e-01h  1
iter    objective    inf_pr   inf_du lg(mu)  ||d||  lg(rg) alpha_du alpha_pr  ls
 240r-2.5539547e-01 1.44e+01 1.00e+03   1.0 0.00e+00    -  0.00e+00 1.35e-08R  2
 241r-2.5538950e-01 1.44e+01 1.00e+03   1.0 2.08e+05    -  2.99e-08 4.63e-09f  1
 242 -2.5539228e-01 1.35e+01 4.47e+04  -7.5 1.03e+02    -  1.28e-06 5.74e-02h  1
 243 -2.5540607e-01 9.17e+00 3.03e+04  -7.5 9.53e+01    -  4.05e-02 3.23e-01h  1
 244 -2.5534448e-01 4.13e+00 1.37e+04  -7.5 5.74e+01    -  3.68e-01 5.49e-01h  1
 245 -2.5529936e-01 3.50e-02 1.04e+01  -7.5 1.93e+01    -  5.96e-01 1.00e+00h  1
 246 -2.5531772e-01 1.45e-04 2.81e-01  -7.5 1.10e+00    -  9.76e-01 1.00e+00h  1
 247 -2.5544052e-01 2.30e-04 1.66e+00  -7.5 1.93e+01    -  9.33e-01 1.62e-01h  1
 248 -2.5552726e-01 5.10e-03 8.41e-01  -7.5 1.62e+01    -  7.93e-01 9.70e-01f  1
 249 -2.5567725e-01 2.74e-02 1.64e-01  -7.5 1.02e+02    -  7.94e-01 8.11e-01h  1
iter    objective    inf_pr   inf_du lg(mu)  ||d||  lg(rg) alpha_du alpha_pr  ls
 250 -2.5600931e-01 3.00e-01 1.50e-01  -7.5 4.84e+02    -  7.26e-01 6.34e-01h  1
 251 -2.5604993e-01 2.46e-01 3.30e+01  -7.5 7.48e+02    -  7.63e-01 1.97e-01h  1
 252 -2.5635393e-01 1.15e+00 2.71e+01  -7.5 1.33e+03    -  8.10e-01 4.91e-01h  1
 253 -2.5655208e-01 4.26e-01 1.27e+01  -7.5 9.05e+02    -  3.07e-01 3.47e-01h  1
 254 -2.5706724e-01 1.06e+00 5.43e+01  -7.5 5.87e+02    -  7.58e-01 1.00e+00h  1
 255 -2.5723268e-01 8.78e-01 2.11e+02  -7.5 3.09e+02    -  5.36e-01 2.62e-01h  1
 256 -2.5757492e-01 8.05e-01 4.72e+02  -7.5 2.68e+02    -  9.10e-01 5.22e-01h  1
 257 -2.5827996e-01 7.18e-01 6.65e+02  -7.5 1.31e+02 -11.0 5.58e-01 1.00e+00h  1
 258 -2.5858720e-01 5.25e-01 2.42e+03  -7.5 1.74e+02 -11.4 8.25e-02 4.04e-01h  1
 259 -2.5879323e-01 1.02e+02 4.54e+03  -7.5 1.07e+04 -11.9 1.80e-02 2.75e-01h  1
iter    objective    inf_pr   inf_du lg(mu)  ||d||  lg(rg) alpha_du alpha_pr  ls
 260 -2.5913210e-01 1.18e+02 9.54e+03  -7.5 4.85e+03    -  8.69e-03 4.54e-01h  1
 261 -2.5930472e-01 9.17e+01 3.02e+03  -7.5 7.59e+02    -  3.79e-01 2.24e-01h  1
 262 -2.6010194e-01 7.26e-01 2.22e+04  -7.5 3.36e+02 -11.5 2.20e-01 1.00e+00h  1
 263 -2.6027193e-01 7.05e-01 8.14e+02  -7.5 5.58e+02    -  3.03e-01 1.57e-01h  1
 264 -2.6038929e-01 6.92e-01 8.39e+04  -7.5 7.20e+02    -  6.12e-01 8.94e-02h  1
 265r-2.6038929e-01 6.92e-01 1.00e+03  -0.3 0.00e+00    -  0.00e+00 3.33e-09R  2
 266r-2.6037918e-01 6.92e-01 1.00e+03  -0.3 1.45e+05    -  4.92e-07 1.10e-07f  1
 267 -2.6037933e-01 6.85e-01 7.29e+03  -7.5 1.49e+01    -  1.38e-06 1.01e-02h  1
 268 -2.6037988e-01 6.60e-01 7.02e+03  -7.5 1.51e+01    -  5.50e-02 3.62e-02h  1
 269 -2.6038008e-01 5.73e-01 6.09e+03  -7.5 1.50e+01    -  1.09e-02 1.32e-01h  1
iter    objective    inf_pr   inf_du lg(mu)  ||d||  lg(rg) alpha_du alpha_pr  ls
 270 -2.6037393e-01 5.41e-01 5.76e+03  -7.5 1.24e+01    -  2.09e-01 5.54e-02h  1
 271 -2.6033437e-01 3.41e-01 3.63e+03  -7.5 1.18e+01    -  7.82e-02 3.70e-01h  1
 272 -2.6025603e-01 1.53e-03 1.22e+01  -7.5 7.38e+00    -  1.31e-01 1.00e+00h  1
 273 -2.6026968e-01 1.02e-06 1.95e-01  -7.5 1.91e-01    -  9.84e-01 1.00e+00h  1
 274 -2.6028075e-01 1.28e-06 3.63e+00  -7.5 1.19e+01    -  9.49e-01 1.40e-02h  1
 275 -2.6039012e-01 1.98e-04 3.59e+00  -7.5 2.04e+02    -  6.83e-02 1.61e-02f  1
 276 -2.6042881e-01 1.09e-03 1.42e+00  -7.5 6.66e+00    -  9.59e-01 6.14e-01f  1
 277 -2.6071197e-01 7.22e-02 1.61e-01  -7.5 4.43e+01    -  9.28e-01 1.00e+00f  1
 278 -2.6100678e-01 1.49e-01 1.72e-01  -7.5 1.38e+02    -  4.58e-01 3.76e-01h  1
 279 -2.6091794e-01 1.51e-02 3.48e-01  -7.5 2.84e+01    -  9.17e-01 9.31e-01h  1
iter    objective    inf_pr   inf_du lg(mu)  ||d||  lg(rg) alpha_du alpha_pr  ls
 280 -2.6114760e-01 1.61e-01 1.00e+00  -7.5 1.42e+02    -  5.77e-01 5.27e-01h  1
 281 -2.6124753e-01 6.35e-01 1.83e+01  -7.5 2.29e+02    -  2.13e-01 1.00e+00h  1
 282 -2.6126959e-01 2.60e+01 1.23e+01  -7.5 6.43e+03 -12.0 1.86e-01 1.61e-01h  1
 283 -2.6133546e-01 1.47e+01 6.84e+00  -7.5 6.90e+02    -  6.50e-01 5.48e-01h  1
 284 -2.6134938e-01 6.99e+01 4.63e+00  -7.5 1.57e+05 -12.4 6.25e-03 1.01e-02h  1
 285 -2.6143032e-01 1.57e+02 8.23e+01  -7.5 5.44e+03    -  5.56e-02 4.48e-01h  1
 286 -2.6145440e-01 8.99e+01 2.12e+05  -7.5 1.94e+03    -  1.91e-03 5.37e-01h  1
 287 -2.6160506e-01 8.76e+01 2.07e+05  -7.5 6.45e+02  -7.5 1.33e-05 2.61e-02h  1
 288 -2.6160507e-01 8.76e+01 2.07e+05  -7.5 3.70e+03  -8.0 2.05e-07 1.20e-04h  1
 289 -2.6160525e-01 8.76e+01 2.07e+05  -7.5 6.82e+02  -7.5 1.43e-06 3.16e-05h  1
iter    objective    inf_pr   inf_du lg(mu)  ||d||  lg(rg) alpha_du alpha_pr  ls
 290 -2.6159448e-01 9.88e+01 1.43e+05  -7.5 1.49e+02  -7.1 1.59e-02 3.06e-01H  1
 291 -2.6159314e-01 9.76e+01 1.41e+05  -7.5 3.02e+01  -7.6 5.97e-03 1.24e-02h  1
 292 -2.6147355e-01 4.81e+00 1.20e+03  -7.5 9.12e+01  -8.1 1.95e-02 1.00e+00h  1
 293 -2.6156368e-01 6.69e+00 1.10e+03  -7.5 1.82e+02  -7.6 7.08e-03 8.64e-02h  1
 294 -2.6156402e-01 6.67e+00 1.09e+03  -7.5 2.09e+02  -7.2 1.34e-05 2.89e-03h  1
 295 -2.6156418e-01 6.67e+00 1.09e+03  -7.5 1.47e+03  -6.8 1.12e-07 2.19e-05f  1
 296 -2.6156418e-01 6.67e+00 1.09e+03  -7.5 5.21e+01  -7.3 6.18e-05 8.04e-05h  1
 297 -2.6156234e-01 6.67e+00 1.09e+03  -7.5 3.50e+02  -6.8 8.70e-03 1.01e-03h  8
 298 -2.6171349e-01 6.45e+00 1.06e+03  -7.5 4.90e+03    -  3.57e-02 3.25e-02h  1
 299 -2.6169919e-01 6.44e+00 1.05e+03  -7.5 6.16e+03    -  2.58e-02 2.60e-03h  4
iter    objective    inf_pr   inf_du lg(mu)  ||d||  lg(rg) alpha_du alpha_pr  ls
 300 -2.6173283e-01 5.43e+00 1.27e+03  -7.5 2.37e+03    -  6.85e-01 1.56e-01h  1
 301 -2.6172981e-01 5.11e+00 1.29e+03  -7.5 2.19e+02  -7.3 5.46e-02 6.06e-02h  1
 302 -2.6175605e-01 8.39e+01 1.15e+03  -7.5 1.76e+04    -  1.91e-01 1.42e-01h  1
 303 -2.6180476e-01 3.41e+01 3.58e+03  -7.5 2.42e+02  -7.8 1.31e-01 5.95e-01h  1
 304 -2.6181697e-01 2.78e+01 2.92e+03  -7.5 7.93e+01  -8.3 3.62e-01 1.85e-01h  1
 305 -2.6190025e-01 5.38e-01 3.32e+02  -7.5 1.20e+02  -8.8 2.62e-01 1.00e+00h  1
 306 -2.6191079e-01 7.95e-02 5.72e+01  -7.5 4.36e+01  -8.3 8.13e-01 8.52e-01h  1
 307 -2.6191767e-01 5.35e-02 2.82e+01  -7.5 5.02e+01  -8.8 5.10e-01 4.99e-01h  1
 308 -2.6192280e-01 2.73e+00 2.36e+01  -7.5 1.00e+03    -  1.32e-02 4.02e-01f  1
 309 -2.6192263e-01 2.80e+00 2.36e+01  -7.5 8.18e+04    -  8.63e-06 7.39e-04f  2
iter    objective    inf_pr   inf_du lg(mu)  ||d||  lg(rg) alpha_du alpha_pr  ls
 310 -2.6192258e-01 2.79e+00 2.28e+01  -7.5 3.37e+02  -9.3 4.08e-02 2.45e-03h  1
 311 -2.6192657e-01 4.42e+01 1.71e+01  -7.5 1.61e+03    -  2.85e-03 1.00e+00f  1
 312 -2.6192627e-01 4.06e+01 1.23e+01  -7.5 8.06e+02    -  2.86e-01 8.20e-02h  1
 313 -2.6193011e-01 1.36e+00 1.29e+01  -7.5 3.11e+02    -  1.48e-01 1.00e+00h  1
 314 -2.6193478e-01 1.34e+00 1.23e+01  -7.5 1.14e+03    -  1.75e-01 3.48e-02h  1
 315 -2.6197064e-01 1.40e+00 7.38e+00  -7.5 4.57e+02    -  4.09e-01 3.96e-01h  1
 316 -2.6200710e-01 1.37e+00 6.90e+00  -7.5 5.34e+03    -  5.05e-02 3.39e-02h  1
 317 -2.6310111e-01 1.37e+01 8.38e+00  -7.5 5.60e+03    -  1.23e-01 1.00e+00h  1
 318 -2.6229034e-01 6.89e+00 4.79e+00  -7.5 1.01e+03  -9.8 2.83e-03 5.00e-01h  2
 319 -2.6253087e-01 8.48e+00 1.37e+00  -7.5 1.31e+03 -10.2 1.00e+00 1.00e+00h  1
iter    objective    inf_pr   inf_du lg(mu)  ||d||  lg(rg) alpha_du alpha_pr  ls
 320 -2.6265798e-01 2.47e+01 2.50e-01  -7.5 1.28e+03    -  1.00e+00 1.00e+00h  1
 321 -2.6254154e-01 5.69e-01 5.50e-02  -7.5 7.34e+02    -  1.00e+00 1.00e+00h  1
 322 -2.6253541e-01 6.31e-04 7.04e-05  -7.5 6.43e+00    -  1.00e+00 1.00e+00h  1
 323 -2.6253541e-01 1.70e-07 8.49e-10  -7.5 1.03e-01    -  1.00e+00 1.00e+00h  1
 324 -2.6253690e-01 6.46e-01 3.67e+00  -9.0 1.73e+03    -  5.16e-01 1.16e-01h  1
 325 -2.6253930e-01 3.64e+01 3.00e+00  -9.0 7.05e+03    -  2.36e-01 2.12e-01h  1
 326 -2.6254094e-01 4.84e+01 1.82e+00  -9.0 3.47e+03    -  2.95e-01 3.40e-01h  1
 327 -2.6254257e-01 3.89e+01 7.29e+01  -9.0 1.55e+03    -  4.53e-02 7.81e-01h  1
 328 -2.6254266e-01 3.83e+01 7.26e+01  -9.0 5.47e+03    -  1.69e-02 3.68e-02h  1
 329 -2.6254268e-01 3.72e+01 5.03e+01  -9.0 1.67e+03    -  3.85e-01 2.84e-02h  1
iter    objective    inf_pr   inf_du lg(mu)  ||d||  lg(rg) alpha_du alpha_pr  ls
 330 -2.6254301e-01 3.09e+01 6.86e+03  -9.0 1.61e+03    -  1.72e-03 4.16e-01h  1
 331 -2.6254362e-01 3.87e+01 1.26e+03  -9.0 1.53e+03    -  1.59e-02 8.16e-01h  1
 332 -2.6254368e-01 2.87e+01 7.80e+02  -9.0 1.55e+03    -  1.37e-01 3.81e-01h  1
 333 -2.6254386e-01 2.66e+01 5.65e+02  -9.0 1.81e+03    -  4.25e-01 2.76e-01h  1
 334 -2.6254402e-01 2.22e+01 4.02e+02  -9.0 1.26e+03    -  4.90e-02 2.89e-01h  1
 335 -2.6254403e-01 2.02e+01 3.66e+02  -9.0 5.59e+02    -  3.64e-02 8.98e-02h  1
 336 -2.6254406e-01 1.63e+01 2.95e+02  -9.0 5.36e+02    -  2.20e-01 1.94e-01h  1
 337 -2.6254407e-01 1.48e+01 2.67e+02  -9.0 5.98e+02    -  4.72e-02 9.46e-02h  1
 338 -2.6254419e-01 4.13e-01 2.25e+00  -9.0 1.75e+02    -  1.03e-01 1.00e+00h  1
 339 -2.6254421e-01 2.96e+00 2.90e-01  -9.0 3.72e+02    -  7.36e-01 1.00e+00h  1
iter    objective    inf_pr   inf_du lg(mu)  ||d||  lg(rg) alpha_du alpha_pr  ls
 340 -2.6254421e-01 1.60e-01 1.98e-01  -9.0 6.60e+01    -  3.18e-01 1.00e+00h  1
 341 -2.6254421e-01 2.69e-03 6.82e-08  -9.0 6.45e+00 -10.7 1.00e+00 1.00e+00h  1
 342 -2.6254447e-01 5.33e+01 2.40e-02  -9.0 3.16e+03    -  5.60e-02 6.74e-01h  1
 343 -2.6254436e-01 4.61e+01 3.06e-02  -9.0 2.81e+03    -  6.60e-01 2.45e-01h  3
 344 -2.6254442e-01 1.01e-01 3.53e-02  -9.0 4.40e+01 -11.2 2.84e-01 1.00e+00h  1
 345 -2.6254507e-01 7.32e+01 7.96e-02  -9.0 6.32e+03    -  2.38e-01 5.40e-01H  1
 346 -2.6254488e-01 7.08e+01 2.16e-01  -9.0 5.34e+03    -  1.00e+00 1.41e-01h  1
 347 -2.6254450e-01 4.54e+01 1.29e+00  -9.0 1.88e+03    -  1.79e-03 1.00e+00h  1
 348 -2.6254458e-01 3.84e-01 3.72e-02  -9.0 1.27e+02    -  8.63e-01 1.00e+00h  1
 349 -2.6254484e-01 2.27e+01 3.89e-02  -9.0 1.69e+04    -  1.39e-01 7.80e-02h  2
iter    objective    inf_pr   inf_du lg(mu)  ||d||  lg(rg) alpha_du alpha_pr  ls
 350 -2.6254508e-01 3.60e+01 5.06e-02  -9.0 2.19e+04    -  1.05e-01 4.70e-02h  2
 351 -2.6254513e-01 3.60e+01 1.32e-01  -9.0 1.20e+04    -  2.71e-01 1.63e-02h  4
 352 -2.6254572e-01 5.60e+01 4.66e-02  -9.0 3.70e+03    -  2.89e-02 4.80e-01H  1
 353 -2.6254637e-01 6.11e+01 1.16e-01  -9.0 1.94e+03    -  8.15e-01 1.00e+00h  1
 354 -2.6254662e-01 4.53e+01 3.32e-02  -9.0 1.78e+03    -  4.77e-01 4.44e-01h  1
 355 -2.6254724e-01 4.36e+01 9.83e-01  -9.0 1.69e+03    -  2.48e-02 1.00e+00H  1
 356 -2.6254725e-01 4.31e+01 1.27e+01  -9.0 2.88e+03    -  2.66e-01 1.35e-02h  1
 357 -2.6254740e-01 3.43e+01 6.23e+01  -9.0 1.57e+03    -  1.05e-01 4.84e-01h  1
 358 -2.6254762e-01 2.55e+01 5.83e+01  -9.0 1.51e+03    -  1.05e-01 6.83e-01H  1
 359 -2.6254778e-01 1.45e+01 4.21e+01  -9.0 1.09e+03    -  7.05e-02 8.31e-01H  1
iter    objective    inf_pr   inf_du lg(mu)  ||d||  lg(rg) alpha_du alpha_pr  ls
 360 -2.6254774e-01 1.43e+01 3.66e+01  -9.0 2.53e+03    -  2.00e-01 7.93e-02h  3
 361 -2.6254769e-01 1.68e+00 1.55e+00  -9.0 2.80e+02    -  4.99e-01 1.00e+00h  1
 362 -2.6254774e-01 5.07e-01 4.57e-04  -9.0 3.29e+02    -  1.00e+00 1.00e+00H  1
 363 -2.6254772e-01 1.01e-01 1.13e-04  -9.0 1.97e+02    -  1.00e+00 1.00e+00H  1
 364 -2.6254772e-01 8.33e-02 3.68e-06  -9.0 5.95e+01    -  1.00e+00 1.00e+00h  1
 365 -2.6254772e-01 1.74e-03 2.72e-07  -9.0 8.49e+00    -  1.00e+00 1.00e+00h  1
 366 -2.6254772e-01 3.83e-07 8.57e-11  -9.0 1.25e-01    -  1.00e+00 1.00e+00h  1
 367 -2.6254772e-01 2.84e-10 2.58e-14  -9.0 2.62e-05    -  1.00e+00 1.00e+00h  1

Number of Iterations....: 367

                                   (scaled)                 (unscaled)
Objective...............:  -2.6254772447202473e-01   -2.6254772447202473e-01
Dual infeasibility......:   2.5793916402530159e-14    2.5793916402530159e-14
Constraint violation....:   2.8430608258259160e-10    2.8430608258259160e-10
Complementarity.........:   9.0909091693339846e-10    9.0909091693339846e-10
Overall NLP error.......:   9.0909091693339846e-10    9.0909091693339846e-10


Number of objective function evaluations             = 454
Number of objective gradient evaluations             = 368
Number of equality constraint evaluations            = 468
Number of inequality constraint evaluations          = 455
Number of equality constraint Jacobian evaluations   = 371
Number of inequality constraint Jacobian evaluations = 371
Number of Lagrangian Hessian evaluations             = 367
Total CPU secs in IPOPT (w/o function evaluations)   =    463.362
Total CPU secs in NLP function evaluations           =     10.092

EXIT: Optimal Solution Found.
